c FILE /home/rafael/Documents/HappySet/MIHS/inputs/happygen/output/graph_scale_free_k4_p0.3_v100_20241127_083826.txt
c SOURCE This is a scale-free graph formed for the happy graph colouring problem.
c DESCRIPTION It was generated using the problem generator of Rhyd Lewis
c
c GRAPH STATS
c Seed                             = -59277714
c Number of Nodes                  = 100
c Number of colours k              = 4
c Number of pre-assignments        = 30
c Number of links per new node     = 5
c Density                          = 0.0979798
c 
c The degrees of nodes 1 to 100, respectively, are as follows 
c [39, 33, 30, 30, 28, 26, 26, 25, 24, 23, 21, 17, 17, 17, 16, 14, 13, 13, 12, 12, 12, 12, 12, 11, 10, 10, 
c  10, 10, 10, 9, 9, 9, 8, 8, 8, 8, 8, 8, 8, 7, 7, 7, 7, 7, 7, 7, 7, 7, 7, 7, 7, 
c  7, 7, 7, 6, 6, 6, 6, 6, 6, 6, 6, 6, 6, 6, 6, 6, 6, 6, 6, 6, 6, 6, 5, 5, 5, 
c  5, 5, 5, 5, 5, 5, 5, 5, 5, 5, 5, 5, 5, 5, 5, 5, 5, 5, 5, 5, 5, 5, 5, 5] 
c  
p edge 100 485 4
e 1 2
e 1 3
e 1 4
e 1 5
e 1 6
e 1 7
e 1 8
e 1 11
e 1 12
e 1 14
e 1 15
e 1 18
e 1 21
e 1 22
e 1 24
e 1 25
e 1 29
e 1 32
e 1 34
e 1 36
e 1 39
e 1 50
e 1 53
e 1 56
e 1 62
e 1 63
e 1 67
e 1 68
e 1 70
e 1 71
e 1 73
e 1 77
e 1 78
e 1 80
e 1 81
e 1 83
e 1 93
e 1 96
e 1 98
e 2 3
e 2 5
e 2 8
e 2 10
e 2 11
e 2 13
e 2 15
e 2 17
e 2 18
e 2 19
e 2 20
e 2 23
e 2 24
e 2 26
e 2 29
e 2 30
e 2 35
e 2 40
e 2 44
e 2 45
e 2 48
e 2 57
e 2 58
e 2 60
e 2 66
e 2 74
e 2 82
e 2 86
e 2 87
e 2 90
e 2 94
e 2 100
e 3 4
e 3 5
e 3 6
e 3 8
e 3 9
e 3 11
e 3 12
e 3 19
e 3 24
e 3 27
e 3 28
e 3 30
e 3 33
e 3 39
e 3 42
e 3 43
e 3 48
e 3 49
e 3 55
e 3 60
e 3 62
e 3 65
e 3 68
e 3 69
e 3 70
e 3 78
e 3 80
e 3 89
e 4 5
e 4 6
e 4 7
e 4 8
e 4 9
e 4 10
e 4 14
e 4 16
e 4 18
e 4 20
e 4 21
e 4 28
e 4 29
e 4 31
e 4 32
e 4 33
e 4 38
e 4 39
e 4 42
e 4 44
e 4 48
e 4 54
e 4 61
e 4 63
e 4 69
e 4 77
e 4 86
e 4 88
e 5 6
e 5 8
e 5 9
e 5 11
e 5 12
e 5 13
e 5 15
e 5 16
e 5 22
e 5 23
e 5 25
e 5 26
e 5 34
e 5 36
e 5 46
e 5 48
e 5 55
e 5 59
e 5 61
e 5 68
e 5 75
e 5 79
e 5 93
e 5 97
e 6 7
e 6 8
e 6 9
e 6 11
e 6 12
e 6 13
e 6 16
e 6 18
e 6 19
e 6 20
e 6 22
e 6 23
e 6 24
e 6 26
e 6 27
e 6 33
e 6 37
e 6 50
e 6 53
e 6 67
e 6 72
e 6 97
e 7 8
e 7 9
e 7 17
e 7 19
e 7 22
e 7 28
e 7 31
e 7 32
e 7 33
e 7 36
e 7 41
e 7 45
e 7 48
e 7 52
e 7 62
e 7 68
e 7 76
e 7 87
e 7 92
e 7 96
e 7 98
e 7 99
e 7 100
e 8 9
e 8 10
e 8 11
e 8 13
e 8 15
e 8 17
e 8 19
e 8 21
e 8 40
e 8 42
e 8 51
e 8 52
e 8 58
e 8 61
e 8 71
e 8 74
e 8 96
e 8 100
e 9 10
e 9 15
e 9 16
e 9 23
e 9 30
e 9 33
e 9 40
e 9 41
e 9 44
e 9 46
e 9 50
e 9 51
e 9 56
e 9 57
e 9 66
e 9 81
e 9 84
e 9 92
e 10 11
e 10 17
e 10 20
e 10 23
e 10 24
e 10 35
e 10 40
e 10 42
e 10 43
e 10 44
e 10 59
e 10 65
e 10 67
e 10 72
e 10 77
e 10 79
e 10 80
e 10 81
e 10 85
e 11 13
e 11 16
e 11 17
e 11 25
e 11 26
e 11 30
e 11 34
e 11 39
e 11 46
e 11 59
e 11 64
e 11 67
e 11 70
e 11 73
e 12 14
e 12 15
e 12 27
e 12 34
e 12 53
e 12 55
e 12 62
e 12 73
e 12 75
e 12 88
e 12 91
e 12 93
e 12 95
e 13 20
e 13 22
e 13 31
e 13 38
e 13 43
e 13 63
e 13 64
e 13 74
e 13 77
e 13 83
e 13 89
e 13 95
e 14 16
e 14 21
e 14 29
e 14 33
e 14 37
e 14 45
e 14 50
e 14 52
e 14 57
e 14 58
e 14 66
e 14 76
e 14 92
e 14 99
e 15 37
e 15 47
e 15 60
e 15 64
e 15 65
e 15 66
e 15 69
e 15 71
e 15 76
e 15 88
e 16 25
e 16 39
e 16 43
e 16 53
e 16 90
e 16 94
e 16 98
e 16 99
e 17 18
e 17 28
e 17 36
e 17 44
e 17 49
e 17 55
e 17 58
e 17 59
e 18 26
e 18 29
e 18 41
e 18 65
e 18 70
e 18 75
e 18 78
e 18 79
e 19 27
e 19 41
e 19 49
e 19 61
e 19 64
e 19 91
e 19 95
e 20 25
e 20 31
e 20 35
e 20 40
e 20 56
e 20 69
e 20 72
e 21 24
e 21 27
e 21 35
e 21 56
e 21 79
e 21 89
e 21 96
e 21 99
e 22 38
e 22 51
e 22 70
e 22 74
e 22 80
e 22 86
e 22 93
e 23 46
e 23 54
e 23 71
e 23 74
e 23 75
e 23 84
e 23 98
e 24 57
e 24 62
e 24 63
e 24 66
e 24 86
e 25 38
e 25 56
e 25 60
e 25 61
e 25 100
e 26 28
e 26 34
e 26 42
e 26 71
e 26 82
e 27 50
e 27 63
e 27 78
e 27 79
e 27 95
e 28 41
e 28 45
e 28 47
e 28 82
e 28 90
e 29 43
e 29 49
e 29 57
e 29 76
e 29 77
e 30 33
e 30 49
e 30 51
e 30 58
e 30 85
e 31 32
e 31 33
e 31 55
e 31 64
e 31 97
e 32 35
e 32 40
e 32 46
e 32 65
e 32 86
e 34 45
e 34 73
e 34 84
e 35 52
e 35 81
e 35 89
e 36 45
e 36 47
e 36 75
e 36 83
e 37 50
e 37 61
e 37 83
e 37 93
e 37 95
e 38 52
e 38 85
e 38 88
e 38 96
e 39 54
e 39 72
e 39 89
e 40 59
e 41 47
e 41 68
e 42 47
e 42 85
e 43 80
e 43 82
e 44 67
e 44 81
e 45 87
e 46 90
e 46 94
e 47 76
e 47 92
e 48 85
e 48 87
e 49 84
e 49 99
e 50 69
e 51 56
e 51 82
e 51 88
e 52 67
e 52 91
e 53 66
e 53 91
e 53 97
e 54 65
e 54 69
e 54 90
e 54 94
e 55 72
e 57 91
e 58 94
e 59 60
e 60 84
e 62 100
e 63 83
e 64 78
e 68 98
e 70 87
e 71 92
e 72 73
e 73 97
n 12 4
n 13 1
n 17 3
n 22 1
n 24 2
n 30 2
n 31 1
n 36 3
n 40 4
n 42 2
n 44 3
n 45 3
n 48 1
n 50 2
n 56 2
n 60 1
n 61 4
n 68 4
n 69 2
n 71 1
n 72 2
n 77 1
n 78 2
n 84 1
n 88 4
n 89 1
n 91 4
n 94 1
n 96 4
n 98 4
